computational_data/solutions/Reg3_n30_s7.sol
Optimal - objective value 14.00000000
      0 r_0                         1                       1
      1 r_1                         1                       1
     14 r_14                        1                       1
     17 r_17                        1                       1
     18 r_18                        1                       1
     21 r_21                        1                       1
     25 r_25                        1                       1
     46 b_16                        1                       1
     50 b_20                        1                       1
     52 b_22                        1                       1
     54 b_24                        1                       1
     57 b_27                        1                       1
     58 b_28                        1                       1
     59 b_29                        1                       1
