computational_data/logs/Reg3_n30_s7.log
Welcome to the CBC MILP Solver 
Version: 2.10.12 
Build Date: Aug 20 2024 

command line - /opt/homebrew/bin/cbc computational_data/lp/Reg3_n30_s7.lp seconds 10.0 solve solu computational_data/solutions/Reg3_n30_s7.sol (default strategy 1)
seconds was changed from 1e+100 to 10
Continuous objective value is 12 - 0.00 seconds
Cgl0003I 0 fixed, 0 tightened bounds, 2 strengthened rows, 0 substitutions
Cgl0003I 0 fixed, 0 tightened bounds, 2 strengthened rows, 0 substitutions
Cgl0003I 0 fixed, 0 tightened bounds, 2 strengthened rows, 0 substitutions
Cgl0004I processed model has 178 rows, 60 columns (60 integer (60 of which binary)) and 594 elements
Cutoff increment increased from 1e-05 to 0.9999
Cbc0038I Initial state - 60 integers unsatisfied sum - 12
Cbc0038I Pass   1: suminf.   12.00000 (60) obj. 12 iterations 0
Cbc0038I Pass   2: suminf.    9.60000 (29) obj. 14.8 iterations 69
Cbc0038I Pass   3: suminf.    0.00000 (0) obj. 17 iterations 41
Cbc0038I Solution found of 17
Cbc0038I Rounding solution of 15 is better than previous of 17

Cbc0038I Before mini branch and bound, 0 integers at bound fixed and 0 continuous
Cbc0038I Full problem 178 rows 60 columns, reduced to 178 rows 60 columns - 5 fixed gives 90, 38 - ok now
Cbc0038I Mini branch and bound did not improve solution (0.01 seconds)
Cbc0038I Round again with cutoff of 13.8001
Cbc0038I Pass   4: suminf.   12.00000 (60) obj. 12 iterations 0
Cbc0038I Pass   5: suminf.    9.81879 (30) obj. 13.8001 iterations 61
Cbc0038I Pass   6: suminf.    6.59973 (16) obj. 13.8001 iterations 46
Cbc0038I Pass   7: suminf.    6.00000 (20) obj. 13.8001 iterations 33
Cbc0038I Pass   8: suminf.    5.48537 (20) obj. 13.8001 iterations 27
Cbc0038I Pass   9: suminf.    5.19991 (14) obj. 13.8001 iterations 42
Cbc0038I Pass  10: suminf.    4.60018 (14) obj. 13.8001 iterations 27
Cbc0038I Pass  11: suminf.    3.73270 (17) obj. 13.8001 iterations 36
Cbc0038I Pass  12: suminf.    3.66622 (27) obj. 13.8001 iterations 28
Cbc0038I Pass  13: suminf.    3.66622 (27) obj. 13.8001 iterations 2
Cbc0038I Pass  14: suminf.    5.19991 (12) obj. 13.8001 iterations 32
Cbc0038I Pass  15: suminf.    4.59973 (11) obj. 13.8001 iterations 22
Cbc0038I Pass  16: suminf.    4.59973 (11) obj. 13.8001 iterations 18
Cbc0038I Pass  17: suminf.    5.19991 (13) obj. 13.8001 iterations 29
Cbc0038I Pass  18: suminf.    4.51399 (14) obj. 13.8001 iterations 19
Cbc0038I Pass  19: suminf.    4.45687 (15) obj. 13.8001 iterations 19
Cbc0038I Pass  20: suminf.    5.19991 (12) obj. 13.8001 iterations 42
Cbc0038I Pass  21: suminf.    4.99955 (12) obj. 13.8001 iterations 14
Cbc0038I Pass  22: suminf.    4.79964 (17) obj. 13.8001 iterations 34
Cbc0038I Pass  23: suminf.    7.39997 (22) obj. 13.8001 iterations 42
Cbc0038I Pass  24: suminf.    5.40009 (22) obj. 13.8001 iterations 20
Cbc0038I Pass  25: suminf.    5.39982 (22) obj. 13.8001 iterations 25
Cbc0038I Pass  26: suminf.    6.53324 (22) obj. 13.8001 iterations 37
Cbc0038I Pass  27: suminf.    6.19991 (15) obj. 13.8001 iterations 24
Cbc0038I Pass  28: suminf.    6.19991 (15) obj. 13.8001 iterations 12
Cbc0038I Pass  29: suminf.    6.19991 (15) obj. 13.8001 iterations 18
Cbc0038I Pass  30: suminf.    5.39937 (14) obj. 13.8001 iterations 73
Cbc0038I Pass  31: suminf.    4.39982 (17) obj. 13.8001 iterations 28
Cbc0038I Pass  32: suminf.    4.99955 (14) obj. 13.8001 iterations 31
Cbc0038I Pass  33: suminf.    4.39982 (15) obj. 13.8001 iterations 19
Cbc0038I No solution found this major pass
Cbc0038I Before mini branch and bound, 0 integers at bound fixed and 0 continuous
Cbc0038I Full problem 178 rows 60 columns, reduced to 178 rows 60 columns - 6 fixed gives 74, 32 - ok now
Cbc0038I Mini branch and bound did not improve solution (0.04 seconds)
Cbc0038I After 0.04 seconds - Feasibility pump exiting with objective of 15 - took 0.04 seconds
Cbc0012I Integer solution of 15 found by feasibility pump after 0 iterations and 0 nodes (0.04 seconds)
Cbc0031I 3 added rows had average density of 42
Cbc0013I At root node, 3 cuts changed objective from 12 to 13 in 100 passes
Cbc0014I Cut generator 0 (Probing) - 0 row cuts average 0.0 elements, 0 column cuts (0 active)  in 0.009 seconds - new frequency is -100
Cbc0014I Cut generator 1 (Gomory) - 2104 row cuts average 59.9 elements, 0 column cuts (0 active)  in 0.038 seconds - new frequency is 1
Cbc0014I Cut generator 2 (Knapsack) - 0 row cuts average 0.0 elements, 0 column cuts (0 active)  in 0.003 seconds - new frequency is -100
Cbc0014I Cut generator 3 (Clique) - 0 row cuts average 0.0 elements, 0 column cuts (0 active)  in 0.004 seconds - new frequency is -100
Cbc0014I Cut generator 4 (MixedIntegerRounding2) - 148 row cuts average 60.0 elements, 0 column cuts (0 active)  in 0.025 seconds - new frequency is -100
Cbc0014I Cut generator 5 (FlowCover) - 0 row cuts average 0.0 elements, 0 column cuts (0 active)  in 0.001 seconds - new frequency is -100
Cbc0010I After 0 nodes, 1 on tree, 15 best solution, best possible 13 (0.23 seconds)
Cbc0012I Integer solution of 14 found by DiveCoefficient after 4685 iterations and 4 nodes (0.25 seconds)
Cbc0001I Search completed - best objective 14, took 6860 iterations and 40 nodes (0.41 seconds)
Cbc0032I Strong branching done 742 times (15248 iterations), fathomed 11 nodes and fixed 2 variables
Cbc0035I Maximum depth 7, 0 variables fixed on reduced cost
Cuts at root node changed objective from 12 to 13
Probing was tried 100 times and created 0 cuts of which 0 were active after adding rounds of cuts (0.009 seconds)
Gomory was tried 136 times and created 2110 cuts of which 0 were active after adding rounds of cuts (0.041 seconds)
Knapsack was tried 100 times and created 0 cuts of which 0 were active after adding rounds of cuts (0.003 seconds)
Clique was tried 100 times and created 0 cuts of which 0 were active after adding rounds of cuts (0.004 seconds)
MixedIntegerRounding2 was tried 100 times and created 148 cuts of which 0 were active after adding rounds of cuts (0.025 seconds)
FlowCover was tried 100 times and created 0 cuts of which 0 were active after adding rounds of cuts (0.001 seconds)
TwoMirCuts was tried 1 times and created 0 cuts of which 0 were active after adding rounds of cuts (0.001 seconds)
ZeroHalf was tried 1 times and created 0 cuts of which 0 were active after adding rounds of cuts (0.000 seconds)

Result - Optimal solution found

Objective value:                14.00000000
Enumerated nodes:               40
Total iterations:               6860
Time (CPU seconds):             0.42
Time (Wallclock seconds):       0.44

Total time (CPU seconds):       0.42   (Wallclock seconds):       0.44

